6 965
529 7 485 7 272 7 90 9 798 11 593 18
525 7 482 7 367 7 213 9 32 11 824 18
525 7 482 7 367 7 213 9 32 11 824 18
525 7 482 7 367 7 213 9 32 11 824 18
525 7 482 7 367 7 213 9 32 11 824 18
525 7 482 7 365 7 212 9 29 11 823 18
